(set-info :origin "SVCOMP13 benchmarks generated by Arie Gurfinkel")
(set-info :status unsat)
(set-logic HORN)
(declare-fun cp-rel-entry () Bool)
(declare-fun cp-rel-bb1.i.i26.i.i () Bool)
(declare-fun cp-rel-bb1.i.i (Real Real Real) Bool)
(assert |cp-rel-entry|)
(assert (forall ((?A Real) (?B Real) (?C Real) (?D Bool) )(let (($x344966 (and |cp-rel-entry| (<= ?C 0.0) (>= ?B 1.0) (<= ?B 1.0) (>= ?A 0.0) (<= ?A 0.0) (= ?D true) (>= ?C 0.0))))
(=> $x344966 (|cp-rel-bb1.i.i| ?A ?B ?C))))
)
(assert (forall ((?A Real) (?B Real) (?C Real) (?D Real) (?E Real) (?F Real) (?G Bool) (?H Bool) (?I Bool) (?J Bool) (?K Bool) (?L Bool) (?M Real) (?N Real) (?O Bool) (?P Bool) (?Q Bool) (?R Bool) (?S Bool) (?T Bool) (?U Real) (?V Real) (?W Bool) (?X Bool) (?Y Bool) (?Z Bool) (?A1 Bool) (?B1 Bool) (?C1 Bool) (?D1 Bool) (?E1 Bool) (?F1 Bool) (?G1 Bool) (?H1 Real) (?I1 Real) (?J1 Real) (?K1 Bool) (?L1 Real) (?M1 Bool) (?N1 Bool) (?O1 Real) (?P1 Bool) (?Q1 Real) (?R1 Real) (?S1 Bool) (?T1 Bool) (?U1 Bool) (?V1 Real) (?W1 Bool) (?X1 Bool) )(let (($x475255 (|cp-rel-bb1.i.i| ?D ?E ?F)))
(let (($x63569 (= ?N1 (or ?X1 ?W1))))
(let (($x419110 (or (not ?G) (and ?H ?I (not ?J)))))
(let (($x551205 (or (not ?G) ?I)))
(let (($x334601 (not ?K)))
(let (($x799911 (or $x334601 (and ?G ?L (<= ?M ?N) (>= ?M ?N)) (and ?H ?O ?J (<= ?M ?B) (>= ?M ?B)))))
(let (($x346084 (or $x334601 (and ?L (not ?O)) (and ?O (not ?L)))))
(let (($x924882 (or (not ?P) (and ?K ?Q (not ?R)))))
(let (($x196734 (or (not ?P) ?Q)))
(let (($x419357 (not ?S)))
(let (($x423454 (or $x419357 (and ?P ?T (<= ?U ?V) (>= ?U ?V)) (and ?K ?W ?R (<= ?U ?A) (>= ?U ?A)))))
(let (($x563826 (or $x419357 (and ?T (not ?W)) (and ?W (not ?T)))))
(let (($x424980 (or (not ?X) (and ?S ?Y ?Z))))
(let (($x841667 (or (not ?X) ?Y)))
(let (($x210149 (or (not ?A1) (and ?S ?B1 (not ?Z)))))
(let (($x473224 (or (not ?A1) ?B1)))
(let (($x206566 (or (not ?C1) (and ?A1 ?D1 ?E1))))
(let (($x253103 (or (not ?C1) ?D1)))
(let (($x477281 (>= ?H1 ?L1)))
(let (($x450508 (<= ?H1 ?L1)))
(let (($x344407 (and ?A1 ?M1 (not ?E1) $x450508 $x477281 (<= ?I1 0.0) (>= ?I1 0.0))))
(let (($x625244 (and ?X ?G1 (<= ?H1 ?M) (>= ?H1 ?M) (<= ?I1 ?J1) (>= ?I1 ?J1))))
(let (($x906839 (not ?F1)))
(let (($x480811 (or $x906839 $x625244 (and ?C1 ?K1 $x450508 $x477281 (<= ?I1 ?C) (>= ?I1 ?C)) $x344407)))
(let (($x701088 (or $x906839 (and ?G1 (not ?K1) (not ?M1)) (and ?K1 (not ?G1) (not ?M1)) (and ?M1 (not ?G1) (not ?K1)))))
(let (($x628530 (= ?F1 true)))
(let (($x848588 (= ?N1 true)))
(let (($x842821 (= ?J (= ?O1 0.0))))
(let (($x16327 (= ?Q1 (ite ?P1 1.0 0.0))))
(let (($x159082 (= ?R (= ?R1 0.0))))
(let (($x85266 (= ?V (ite ?S1 1.0 0.0))))
(let (($x559303 (= ?T1 (not (<= ?M 1.0)))))
(let (($x296633 (= ?U1 (not (<= ?M 0.0)))))
(let (($x817755 (= ?V1 (+ (~ 1.0) ?M))))
(let (($x420329 (= ?L1 (ite ?U1 ?V1 ?M))))
(let (($x860221 (= ?E1 (= ?L1 0.0))))
(let (($x306928 (= ?W1 (= ?U 0.0))))
(let (($x266208 (= ?X1 (= ?I1 0.0))))
(let (($x396616 (and (|cp-rel-bb1.i.i| ?A ?B ?C) $x266208 $x306928 $x860221 $x420329 $x817755 $x296633 (= ?J1 (ite ?T1 1.0 ?C)) $x559303 (= ?Z (= ?C 0.0)) $x85266 (= ?S1 (= ?A 0.0)) $x159082 (= ?N (+ ?Q1 ?B)) $x16327 (= ?P1 (not (<= 2.0 ?B))) $x842821 (>= ?F ?I1) (<= ?F ?I1) (>= ?E ?H1) (<= ?E ?H1) (>= ?D ?U) (<= ?D ?U) $x848588 $x628530 $x701088 $x480811 $x253103 $x206566 $x473224 $x210149 $x841667 $x424980 $x563826 $x423454 $x196734 $x924882 $x346084 $x799911 $x551205 $x419110 $x63569)))
(=> $x396616 $x475255)))))))))))))))))))))))))))))))))))))))))
)
(assert (forall ((?A Real) (?B Real) (?C Real) (?D Bool) (?E Bool) (?F Bool) (?G Bool) (?H Bool) (?I Bool) (?J Real) (?K Real) (?L Bool) (?M Bool) (?N Bool) (?O Bool) (?P Bool) (?Q Bool) (?R Real) (?S Real) (?T Bool) (?U Bool) (?V Bool) (?W Bool) (?X Bool) (?Y Bool) (?Z Bool) (?A1 Bool) (?B1 Bool) (?C1 Bool) (?D1 Bool) (?E1 Real) (?F1 Real) (?G1 Real) (?H1 Bool) (?I1 Real) (?J1 Bool) (?K1 Bool) (?L1 Real) (?M1 Bool) (?N1 Real) (?O1 Real) (?P1 Bool) (?Q1 Bool) (?R1 Bool) (?S1 Real) (?T1 Bool) (?U1 Bool) )(let (($x63569 (= ?K1 (or ?U1 ?T1))))
(let (($x419110 (or (not ?D) (and ?E ?F (not ?G)))))
(let (($x551205 (or (not ?D) ?F)))
(let (($x334601 (not ?H)))
(let (($x689057 (or $x334601 (and ?D ?I (<= ?J ?K) (>= ?J ?K)) (and ?E ?L ?G (<= ?J ?B) (>= ?J ?B)))))
(let (($x346084 (or $x334601 (and ?I (not ?L)) (and ?L (not ?I)))))
(let (($x924882 (or (not ?M) (and ?H ?N (not ?O)))))
(let (($x196734 (or (not ?M) ?N)))
(let (($x419357 (not ?P)))
(let (($x82122 (or $x419357 (and ?M ?Q (<= ?R ?S) (>= ?R ?S)) (and ?H ?T ?O (<= ?R ?A) (>= ?R ?A)))))
(let (($x563826 (or $x419357 (and ?Q (not ?T)) (and ?T (not ?Q)))))
(let (($x424980 (or (not ?U) (and ?P ?V ?W))))
(let (($x841667 (or (not ?U) ?V)))
(let (($x210149 (or (not ?X) (and ?P ?Y (not ?W)))))
(let (($x473224 (or (not ?X) ?Y)))
(let (($x206566 (or (not ?Z) (and ?X ?A1 ?B1))))
(let (($x253103 (or (not ?Z) ?A1)))
(let (($x477281 (>= ?E1 ?I1)))
(let (($x450508 (<= ?E1 ?I1)))
(let (($x344407 (and ?X ?J1 (not ?B1) $x450508 $x477281 (<= ?F1 0.0) (>= ?F1 0.0))))
(let (($x625244 (and ?U ?D1 (<= ?E1 ?J) (>= ?E1 ?J) (<= ?F1 ?G1) (>= ?F1 ?G1))))
(let (($x906839 (not ?C1)))
(let (($x268589 (or $x906839 $x625244 (and ?Z ?H1 $x450508 $x477281 (<= ?F1 ?C) (>= ?F1 ?C)) $x344407)))
(let (($x701088 (or $x906839 (and ?D1 (not ?H1) (not ?J1)) (and ?H1 (not ?D1) (not ?J1)) (and ?J1 (not ?D1) (not ?H1)))))
(let (($x628530 (= ?C1 true)))
(let (($x842821 (= ?G (= ?L1 0.0))))
(let (($x16327 (= ?N1 (ite ?M1 1.0 0.0))))
(let (($x159082 (= ?O (= ?O1 0.0))))
(let (($x85266 (= ?S (ite ?P1 1.0 0.0))))
(let (($x559303 (= ?Q1 (not (<= ?J 1.0)))))
(let (($x296633 (= ?R1 (not (<= ?J 0.0)))))
(let (($x817755 (= ?S1 (+ (~ 1.0) ?J))))
(let (($x420329 (= ?I1 (ite ?R1 ?S1 ?J))))
(let (($x860221 (= ?B1 (= ?I1 0.0))))
(let (($x306928 (= ?T1 (= ?R 0.0))))
(let (($x266208 (= ?U1 (= ?F1 0.0))))
(let (($x475255 (|cp-rel-bb1.i.i| ?A ?B ?C)))
(let (($x637402 (and $x475255 $x266208 $x306928 $x860221 $x420329 $x817755 $x296633 (= ?G1 (ite ?Q1 1.0 ?C)) $x559303 (= ?W (= ?C 0.0)) $x85266 (= ?P1 (= ?A 0.0)) $x159082 (= ?K (+ ?N1 ?B)) $x16327 (= ?M1 (not (<= 2.0 ?B))) $x842821 (not (= ?K1 true)) $x628530 $x701088 $x268589 $x253103 $x206566 $x473224 $x210149 $x841667 $x424980 $x563826 $x82122 $x196734 $x924882 $x346084 $x689057 $x551205 $x419110 $x63569)))
(=> $x637402 |cp-rel-bb1.i.i26.i.i|))))))))))))))))))))))))))))))))))))))))
)
(assert (not cp-rel-bb1.i.i26.i.i))
(check-sat)
